94 32 85 3 55 36 16 27 82 68 87 14 64 15 0 73 59 38 6 81 21 40 41 77 56 54 17 89 42 65 11 69 71 70 19 33 37 10 39 1 20 57 28 75 99 86 80 74 26 18 61 96 66 24 72 67 12 62 8 63 97 31 46 34 52 58 5 43 60 93 47 22 95 49 50 98 79 76 23 51 88 53 35 13 9 25 4 44 83 29 48 2 7 92 30 78 45 91 90 84 

